NAME: cities_5_16
TYPE: TSP
COMMENT: Generated from CSV
DIMENSION: 5
EDGE_WEIGHT_TYPE: EUC_2D
NODE_COORD_SECTION
1 32.09937266246718 76.4818697701142
2 72.09039514147317 22.450996172240437
3 16.671471208730626 15.468712313282174
4 27.580022387996078 82.32420549605654
5 21.73237191984123 65.11767543474942
EOF
